c n orig vars 110
p cnf 112 426
1 2 -111 0
3 4 -111 0
5 6 -111 0
7 8 -111 0
9 10 -111 0
11 12 -111 0
13 14 -111 0
15 16 -111 0
17 18 -111 0
19 20 -111 0
21 31 41 51 61 71 81 91 101 -112 0
22 32 42 52 62 72 82 92 102 -112 0
23 33 43 53 63 73 83 93 103 -112 0
24 34 44 54 64 74 84 94 104 -112 0
25 35 45 55 65 75 85 95 105 -112 0
26 36 46 56 66 76 86 96 106 -112 0
27 37 47 57 67 77 87 97 107 -112 0
28 38 48 58 68 78 88 98 108 -112 0
29 39 49 59 69 79 89 99 109 -112 0
30 40 50 60 70 80 90 100 110 -112 0
-21 -22 -112 0
-21 -23 -112 0
-21 -24 -112 0
-21 -25 -112 0
-21 -26 -112 0
-21 -27 -112 0
-21 -28 -112 0
-21 -29 -112 0
-21 -30 -112 0
-22 -23 -112 0
-22 -24 -112 0
-22 -25 -112 0
-22 -26 -112 0
-22 -27 -112 0
-22 -28 -112 0
-22 -29 -112 0
-22 -30 -112 0
-23 -24 -112 0
-23 -25 -112 0
-23 -26 -112 0
-23 -27 -112 0
-23 -28 -112 0
-23 -29 -112 0
-23 -30 -112 0
-24 -25 -112 0
-24 -26 -112 0
-24 -27 -112 0
-24 -28 -112 0
-24 -29 -112 0
-24 -30 -112 0
-25 -26 -112 0
-25 -27 -112 0
-25 -28 -112 0
-25 -29 -112 0
-25 -30 -112 0
-26 -27 -112 0
-26 -28 -112 0
-26 -29 -112 0
-26 -30 -112 0
-27 -28 -112 0
-27 -29 -112 0
-27 -30 -112 0
-28 -29 -112 0
-28 -30 -112 0
-29 -30 -112 0
-31 -32 -112 0
-31 -33 -112 0
-31 -34 -112 0
-31 -35 -112 0
-31 -36 -112 0
-31 -37 -112 0
-31 -38 -112 0
-31 -39 -112 0
-31 -40 -112 0
-32 -33 -112 0
-32 -34 -112 0
-32 -35 -112 0
-32 -36 -112 0
-32 -37 -112 0
-32 -38 -112 0
-32 -39 -112 0
-32 -40 -112 0
-33 -34 -112 0
-33 -35 -112 0
-33 -36 -112 0
-33 -37 -112 0
-33 -38 -112 0
-33 -39 -112 0
-33 -40 -112 0
-34 -35 -112 0
-34 -36 -112 0
-34 -37 -112 0
-34 -38 -112 0
-34 -39 -112 0
-34 -40 -112 0
-35 -36 -112 0
-35 -37 -112 0
-35 -38 -112 0
-35 -39 -112 0
-35 -40 -112 0
-36 -37 -112 0
-36 -38 -112 0
-36 -39 -112 0
-36 -40 -112 0
-37 -38 -112 0
-37 -39 -112 0
-37 -40 -112 0
-38 -39 -112 0
-38 -40 -112 0
-39 -40 -112 0
-41 -42 -112 0
-41 -43 -112 0
-41 -44 -112 0
-41 -45 -112 0
-41 -46 -112 0
-41 -47 -112 0
-41 -48 -112 0
-41 -49 -112 0
-41 -50 -112 0
-42 -43 -112 0
-42 -44 -112 0
-42 -45 -112 0
-42 -46 -112 0
-42 -47 -112 0
-42 -48 -112 0
-42 -49 -112 0
-42 -50 -112 0
-43 -44 -112 0
-43 -45 -112 0
-43 -46 -112 0
-43 -47 -112 0
-43 -48 -112 0
-43 -49 -112 0
-43 -50 -112 0
-44 -45 -112 0
-44 -46 -112 0
-44 -47 -112 0
-44 -48 -112 0
-44 -49 -112 0
-44 -50 -112 0
-45 -46 -112 0
-45 -47 -112 0
-45 -48 -112 0
-45 -49 -112 0
-45 -50 -112 0
-46 -47 -112 0
-46 -48 -112 0
-46 -49 -112 0
-46 -50 -112 0
-47 -48 -112 0
-47 -49 -112 0
-47 -50 -112 0
-48 -49 -112 0
-48 -50 -112 0
-49 -50 -112 0
-51 -52 -112 0
-51 -53 -112 0
-51 -54 -112 0
-51 -55 -112 0
-51 -56 -112 0
-51 -57 -112 0
-51 -58 -112 0
-51 -59 -112 0
-51 -60 -112 0
-52 -53 -112 0
-52 -54 -112 0
-52 -55 -112 0
-52 -56 -112 0
-52 -57 -112 0
-52 -58 -112 0
-52 -59 -112 0
-52 -60 -112 0
-53 -54 -112 0
-53 -55 -112 0
-53 -56 -112 0
-53 -57 -112 0
-53 -58 -112 0
-53 -59 -112 0
-53 -60 -112 0
-54 -55 -112 0
-54 -56 -112 0
-54 -57 -112 0
-54 -58 -112 0
-54 -59 -112 0
-54 -60 -112 0
-55 -56 -112 0
-55 -57 -112 0
-55 -58 -112 0
-55 -59 -112 0
-55 -60 -112 0
-56 -57 -112 0
-56 -58 -112 0
-56 -59 -112 0
-56 -60 -112 0
-57 -58 -112 0
-57 -59 -112 0
-57 -60 -112 0
-58 -59 -112 0
-58 -60 -112 0
-59 -60 -112 0
-61 -62 -112 0
-61 -63 -112 0
-61 -64 -112 0
-61 -65 -112 0
-61 -66 -112 0
-61 -67 -112 0
-61 -68 -112 0
-61 -69 -112 0
-61 -70 -112 0
-62 -63 -112 0
-62 -64 -112 0
-62 -65 -112 0
-62 -66 -112 0
-62 -67 -112 0
-62 -68 -112 0
-62 -69 -112 0
-62 -70 -112 0
-63 -64 -112 0
-63 -65 -112 0
-63 -66 -112 0
-63 -67 -112 0
-63 -68 -112 0
-63 -69 -112 0
-63 -70 -112 0
-64 -65 -112 0
-64 -66 -112 0
-64 -67 -112 0
-64 -68 -112 0
-64 -69 -112 0
-64 -70 -112 0
-65 -66 -112 0
-65 -67 -112 0
-65 -68 -112 0
-65 -69 -112 0
-65 -70 -112 0
-66 -67 -112 0
-66 -68 -112 0
-66 -69 -112 0
-66 -70 -112 0
-67 -68 -112 0
-67 -69 -112 0
-67 -70 -112 0
-68 -69 -112 0
-68 -70 -112 0
-69 -70 -112 0
-71 -72 -112 0
-71 -73 -112 0
-71 -74 -112 0
-71 -75 -112 0
-71 -76 -112 0
-71 -77 -112 0
-71 -78 -112 0
-71 -79 -112 0
-71 -80 -112 0
-72 -73 -112 0
-72 -74 -112 0
-72 -75 -112 0
-72 -76 -112 0
-72 -77 -112 0
-72 -78 -112 0
-72 -79 -112 0
-72 -80 -112 0
-73 -74 -112 0
-73 -75 -112 0
-73 -76 -112 0
-73 -77 -112 0
-73 -78 -112 0
-73 -79 -112 0
-73 -80 -112 0
-74 -75 -112 0
-74 -76 -112 0
-74 -77 -112 0
-74 -78 -112 0
-74 -79 -112 0
-74 -80 -112 0
-75 -76 -112 0
-75 -77 -112 0
-75 -78 -112 0
-75 -79 -112 0
-75 -80 -112 0
-76 -77 -112 0
-76 -78 -112 0
-76 -79 -112 0
-76 -80 -112 0
-77 -78 -112 0
-77 -79 -112 0
-77 -80 -112 0
-78 -79 -112 0
-78 -80 -112 0
-79 -80 -112 0
-81 -82 -112 0
-81 -83 -112 0
-81 -84 -112 0
-81 -85 -112 0
-81 -86 -112 0
-81 -87 -112 0
-81 -88 -112 0
-81 -89 -112 0
-81 -90 -112 0
-82 -83 -112 0
-82 -84 -112 0
-82 -85 -112 0
-82 -86 -112 0
-82 -87 -112 0
-82 -88 -112 0
-82 -89 -112 0
-82 -90 -112 0
-83 -84 -112 0
-83 -85 -112 0
-83 -86 -112 0
-83 -87 -112 0
-83 -88 -112 0
-83 -89 -112 0
-83 -90 -112 0
-84 -85 -112 0
-84 -86 -112 0
-84 -87 -112 0
-84 -88 -112 0
-84 -89 -112 0
-84 -90 -112 0
-85 -86 -112 0
-85 -87 -112 0
-85 -88 -112 0
-85 -89 -112 0
-85 -90 -112 0
-86 -87 -112 0
-86 -88 -112 0
-86 -89 -112 0
-86 -90 -112 0
-87 -88 -112 0
-87 -89 -112 0
-87 -90 -112 0
-88 -89 -112 0
-88 -90 -112 0
-89 -90 -112 0
-91 -92 -112 0
-91 -93 -112 0
-91 -94 -112 0
-91 -95 -112 0
-91 -96 -112 0
-91 -97 -112 0
-91 -98 -112 0
-91 -99 -112 0
-91 -100 -112 0
-92 -93 -112 0
-92 -94 -112 0
-92 -95 -112 0
-92 -96 -112 0
-92 -97 -112 0
-92 -98 -112 0
-92 -99 -112 0
-92 -100 -112 0
-93 -94 -112 0
-93 -95 -112 0
-93 -96 -112 0
-93 -97 -112 0
-93 -98 -112 0
-93 -99 -112 0
-93 -100 -112 0
-94 -95 -112 0
-94 -96 -112 0
-94 -97 -112 0
-94 -98 -112 0
-94 -99 -112 0
-94 -100 -112 0
-95 -96 -112 0
-95 -97 -112 0
-95 -98 -112 0
-95 -99 -112 0
-95 -100 -112 0
-96 -97 -112 0
-96 -98 -112 0
-96 -99 -112 0
-96 -100 -112 0
-97 -98 -112 0
-97 -99 -112 0
-97 -100 -112 0
-98 -99 -112 0
-98 -100 -112 0
-99 -100 -112 0
-101 -102 -112 0
-101 -103 -112 0
-101 -104 -112 0
-101 -105 -112 0
-101 -106 -112 0
-101 -107 -112 0
-101 -108 -112 0
-101 -109 -112 0
-101 -110 -112 0
-102 -103 -112 0
-102 -104 -112 0
-102 -105 -112 0
-102 -106 -112 0
-102 -107 -112 0
-102 -108 -112 0
-102 -109 -112 0
-102 -110 -112 0
-103 -104 -112 0
-103 -105 -112 0
-103 -106 -112 0
-103 -107 -112 0
-103 -108 -112 0
-103 -109 -112 0
-103 -110 -112 0
-104 -105 -112 0
-104 -106 -112 0
-104 -107 -112 0
-104 -108 -112 0
-104 -109 -112 0
-104 -110 -112 0
-105 -106 -112 0
-105 -107 -112 0
-105 -108 -112 0
-105 -109 -112 0
-105 -110 -112 0
-106 -107 -112 0
-106 -108 -112 0
-106 -109 -112 0
-106 -110 -112 0
-107 -108 -112 0
-107 -109 -112 0
-107 -110 -112 0
-108 -109 -112 0
-108 -110 -112 0
-109 -110 -112 0
111 112 0
